NAME: berlin52
TYPE: TSP
COMMENT: 52 locations in Berlin (Groetschel)
DIMENSION: 52
EDGE_WEIGHT_TYPE: EUC_2D
NODE_COORD_SECTION



NAME: st70
TYPE: TSP
COMMENT: 70-city problem (Smith/Thompson)
DIMENSION: 70
EDGE_WEIGHT_TYPE : EUC_2D
NODE_COORD_SECTION

NAME : pr76
COMMENT : 76-city problem (Padberg/Rinaldi)
TYPE : TSP
DIMENSION : 76
EDGE_WEIGHT_TYPE : EUC_2D
NODE_COORD_SECTION
